(set-info :smt-lib-version 2.6)
(set-logic UF)
(set-info :source |Benchmarks from the paper: "Extending Sledgehammer with SMT Solvers" by Jasmin Blanchette, Sascha Bohme, and Lawrence C. Paulson, CADE 2011.  Translated to SMT2 by Andrew Reynolds and Morgan Deters.|)
(set-info :category "industrial")
(set-info :status unsat)
(declare-sort S1 0)
(declare-sort S2 0)
(declare-sort S3 0)
(declare-sort S4 0)
(declare-sort S5 0)
(declare-sort S6 0)
(declare-sort S7 0)
(declare-sort S8 0)
(declare-sort S9 0)
(declare-sort S10 0)
(declare-sort S11 0)
(declare-sort S12 0)
(declare-sort S13 0)
(declare-sort S14 0)
(declare-sort S15 0)
(declare-fun f1 () S1)
(declare-fun f2 () S1)
(declare-fun f3 (S3 S2) S1)
(declare-fun f4 (S4 S2) S3)
(declare-fun f5 () S4)
(declare-fun f6 () S4)
(declare-fun f7 () S2)
(declare-fun f8 () S4)
(declare-fun f9 () S2)
(declare-fun f10 (S6 S5) S1)
(declare-fun f11 (S7 S5) S6)
(declare-fun f12 () S7)
(declare-fun f13 () S7)
(declare-fun f14 (S8 S3) S1)
(declare-fun f15 (S9 S2) S8)
(declare-fun f16 () S9)
(declare-fun f17 (S10 S3) S3)
(declare-fun f18 () S10)
(declare-fun f19 () S4)
(declare-fun f20 (S11 S2) S2)
(declare-fun f21 (S12 S2) S11)
(declare-fun f22 () S12)
(declare-fun f23 (S13 S5) S5)
(declare-fun f24 () S12)
(declare-fun f25 () S11)
(declare-fun f26 () S5)
(declare-fun f27 () S5)
(declare-fun f28 () S12)
(declare-fun f29 () S5)
(declare-fun f30 (S14 S5) S13)
(declare-fun f31 () S14)
(declare-fun f32 () S2)
(declare-fun f33 () S2)
(declare-fun f34 () S5)
(declare-fun f35 (S15 S2) S5)
(declare-fun f36 () S15)
(assert (not (= f1 f2)))
(assert (forall ((?v0 S2) (?v1 S2)) (= (= (f3 (f4 f5 ?v0) ?v1) f1) (and (= (f3 (f4 f6 f7) ?v1) f1) (= (f3 (f4 f8 ?v1) ?v0) f1)))))
(assert (not (= (f3 (f4 f8 f7) f9) f1)))
(assert (not (= f9 f7)))
(assert (= (f3 (f4 f6 f7) f9) f1))
(assert (not (= f9 f7)))
(assert (= (f3 (f4 f6 f7) f9) f1))
(assert (forall ((?v0 S2) (?v1 S2)) (or (= (f3 (f4 f8 ?v0) ?v1) f1) (or (= ?v0 ?v1) (= (f3 (f4 f8 ?v1) ?v0) f1)))))
(assert (forall ((?v0 S2)) (not (= (f3 (f4 f8 ?v0) ?v0) f1))))
(assert (forall ((?v0 S5)) (not (= (f10 (f11 f12 ?v0) ?v0) f1))))
(assert (forall ((?v0 S2) (?v1 S2)) (= (not (= ?v0 ?v1)) (or (= (f3 (f4 f8 ?v0) ?v1) f1) (= (f3 (f4 f8 ?v1) ?v0) f1)))))
(assert (forall ((?v0 S5) (?v1 S5)) (= (not (= ?v0 ?v1)) (or (= (f10 (f11 f12 ?v0) ?v1) f1) (= (f10 (f11 f12 ?v1) ?v0) f1)))))
(assert (forall ((?v0 S2) (?v1 S2)) (= (not (= (f3 (f4 f8 ?v0) ?v1) f1)) (or (= (f3 (f4 f8 ?v1) ?v0) f1) (= ?v0 ?v1)))))
(assert (forall ((?v0 S5) (?v1 S5)) (= (not (= (f10 (f11 f12 ?v0) ?v1) f1)) (or (= (f10 (f11 f12 ?v1) ?v0) f1) (= ?v0 ?v1)))))
(assert (forall ((?v0 S2) (?v1 S2)) (or (= (f3 (f4 f8 ?v0) ?v1) f1) (or (= ?v0 ?v1) (= (f3 (f4 f8 ?v1) ?v0) f1)))))
(assert (forall ((?v0 S5) (?v1 S5)) (or (= (f10 (f11 f12 ?v0) ?v1) f1) (or (= ?v0 ?v1) (= (f10 (f11 f12 ?v1) ?v0) f1)))))
(assert (forall ((?v0 S2) (?v1 S2)) (=> (not (= (f3 (f4 f8 ?v0) ?v1) f1)) (= (not (= (f3 (f4 f8 ?v1) ?v0) f1)) (= ?v1 ?v0)))))
(assert (forall ((?v0 S5) (?v1 S5)) (=> (not (= (f10 (f11 f12 ?v0) ?v1) f1)) (= (not (= (f10 (f11 f12 ?v1) ?v0) f1)) (= ?v1 ?v0)))))
(assert (forall ((?v0 S2) (?v1 S2)) (=> (not (= ?v0 ?v1)) (=> (=> (= (f3 (f4 f8 ?v0) ?v1) f1) false) (=> (=> (= (f3 (f4 f8 ?v1) ?v0) f1) false) false)))))
(assert (forall ((?v0 S5) (?v1 S5)) (=> (not (= ?v0 ?v1)) (=> (=> (= (f10 (f11 f12 ?v0) ?v1) f1) false) (=> (=> (= (f10 (f11 f12 ?v1) ?v0) f1) false) false)))))
(assert (forall ((?v0 S2) (?v1 S2)) (=> (not (= ?v0 ?v1)) (=> (=> (= (f3 (f4 f8 ?v0) ?v1) f1) false) (=> (=> (= (f3 (f4 f8 ?v1) ?v0) f1) false) false)))))
(assert (forall ((?v0 S2) (?v1 S2)) (=> (= (f3 (f4 f8 ?v0) ?v1) f1) (not (= ?v0 ?v1)))))
(assert (forall ((?v0 S5) (?v1 S5)) (=> (= (f10 (f11 f12 ?v0) ?v1) f1) (not (= ?v0 ?v1)))))
(assert (forall ((?v0 S2) (?v1 S2)) (=> (= (f3 (f4 f8 ?v0) ?v1) f1) (not (= (f3 (f4 f8 ?v1) ?v0) f1)))))
(assert (forall ((?v0 S5) (?v1 S5)) (=> (= (f10 (f11 f12 ?v0) ?v1) f1) (not (= (f10 (f11 f12 ?v1) ?v0) f1)))))
(assert (forall ((?v0 S2) (?v1 S2)) (=> (= (f3 (f4 f8 ?v0) ?v1) f1) (= (not (= (f3 (f4 f8 ?v1) ?v0) f1)) true))))
(assert (forall ((?v0 S5) (?v1 S5)) (=> (= (f10 (f11 f12 ?v0) ?v1) f1) (= (not (= (f10 (f11 f12 ?v1) ?v0) f1)) true))))
(assert (forall ((?v0 S2) (?v1 S2)) (=> (= (f3 (f4 f8 ?v0) ?v1) f1) (= (= ?v0 ?v1) false))))
(assert (forall ((?v0 S5) (?v1 S5)) (=> (= (f10 (f11 f12 ?v0) ?v1) f1) (= (= ?v0 ?v1) false))))
(assert (forall ((?v0 S2)) (= (f3 (f4 f6 ?v0) ?v0) f1)))
(assert (forall ((?v0 S5)) (= (f10 (f11 f13 ?v0) ?v0) f1)))
(assert (forall ((?v0 S2)) (= (f3 (f4 f6 ?v0) ?v0) f1)))
(assert (forall ((?v0 S2) (?v1 S2)) (or (= (f3 (f4 f6 ?v0) ?v1) f1) (= (f3 (f4 f6 ?v1) ?v0) f1))))
(assert (forall ((?v0 S5) (?v1 S5)) (or (= (f10 (f11 f13 ?v0) ?v1) f1) (= (f10 (f11 f13 ?v1) ?v0) f1))))
(assert (forall ((?v0 S2) (?v1 S2)) (or (= (f3 (f4 f6 ?v0) ?v1) f1) (= (f3 (f4 f6 ?v1) ?v0) f1))))
(assert (forall ((?v0 S2) (?v1 S2)) (= (= ?v0 ?v1) (and (= (f3 (f4 f6 ?v0) ?v1) f1) (= (f3 (f4 f6 ?v1) ?v0) f1)))))
(assert (forall ((?v0 S5) (?v1 S5)) (= (= ?v0 ?v1) (and (= (f10 (f11 f13 ?v0) ?v1) f1) (= (f10 (f11 f13 ?v1) ?v0) f1)))))
(assert (forall ((?v0 S2) (?v1 S2)) (=> (= ?v0 ?v1) (= (f3 (f4 f6 ?v0) ?v1) f1))))
(assert (forall ((?v0 S5) (?v1 S5)) (=> (= ?v0 ?v1) (= (f10 (f11 f13 ?v0) ?v1) f1))))
(assert (forall ((?v0 S2) (?v1 S2)) (=> (= (f3 (f4 f6 ?v0) ?v1) f1) (= (= (f3 (f4 f6 ?v1) ?v0) f1) (= ?v1 ?v0)))))
(assert (forall ((?v0 S5) (?v1 S5)) (=> (= (f10 (f11 f13 ?v0) ?v1) f1) (= (= (f10 (f11 f13 ?v1) ?v0) f1) (= ?v1 ?v0)))))
(assert (forall ((?v0 S2) (?v1 S2) (?v2 S2)) (=> (= ?v0 ?v1) (=> (= (f3 (f4 f6 ?v1) ?v2) f1) (= (f3 (f4 f6 ?v0) ?v2) f1)))))
(assert (forall ((?v0 S5) (?v1 S5) (?v2 S5)) (=> (= ?v0 ?v1) (=> (= (f10 (f11 f13 ?v1) ?v2) f1) (= (f10 (f11 f13 ?v0) ?v2) f1)))))
(assert (forall ((?v0 S2) (?v1 S2) (?v2 S2)) (let ((?v_0 (f4 f6 ?v2))) (=> (= ?v0 ?v1) (=> (= (f3 ?v_0 ?v1) f1) (= (f3 ?v_0 ?v0) f1))))))
(assert (forall ((?v0 S5) (?v1 S5) (?v2 S5)) (let ((?v_0 (f11 f13 ?v2))) (=> (= ?v0 ?v1) (=> (= (f10 ?v_0 ?v1) f1) (= (f10 ?v_0 ?v0) f1))))))
(assert (forall ((?v0 S2) (?v1 S2) (?v2 S2)) (let ((?v_0 (f4 f6 ?v0))) (=> (= (f3 ?v_0 ?v1) f1) (=> (= ?v1 ?v2) (= (f3 ?v_0 ?v2) f1))))))
(assert (forall ((?v0 S5) (?v1 S5) (?v2 S5)) (let ((?v_0 (f11 f13 ?v0))) (=> (= (f10 ?v_0 ?v1) f1) (=> (= ?v1 ?v2) (= (f10 ?v_0 ?v2) f1))))))
(assert (forall ((?v0 S2) (?v1 S2) (?v2 S2)) (=> (= (f3 (f4 f6 ?v0) ?v1) f1) (=> (= ?v0 ?v2) (= (f3 (f4 f6 ?v2) ?v1) f1)))))
(assert (forall ((?v0 S5) (?v1 S5) (?v2 S5)) (=> (= (f10 (f11 f13 ?v0) ?v1) f1) (=> (= ?v0 ?v2) (= (f10 (f11 f13 ?v2) ?v1) f1)))))
(assert (forall ((?v0 S2) (?v1 S2) (?v2 S2)) (let ((?v_0 (f4 f6 ?v0))) (=> (= (f3 ?v_0 ?v1) f1) (=> (= (f3 (f4 f6 ?v1) ?v2) f1) (= (f3 ?v_0 ?v2) f1))))))
(assert (forall ((?v0 S2) (?v1 S2)) (=> (= (f3 (f4 f6 ?v0) ?v1) f1) (=> (= (f3 (f4 f6 ?v1) ?v0) f1) (= ?v0 ?v1)))))
(assert (forall ((?v0 S5) (?v1 S5)) (=> (= (f10 (f11 f13 ?v0) ?v1) f1) (=> (= (f10 (f11 f13 ?v1) ?v0) f1) (= ?v0 ?v1)))))
(assert (forall ((?v0 S2) (?v1 S2) (?v2 S2)) (let ((?v_0 (f4 f6 ?v0))) (=> (= (f3 ?v_0 ?v1) f1) (=> (= (f3 (f4 f6 ?v1) ?v2) f1) (= (f3 ?v_0 ?v2) f1))))))
(assert (forall ((?v0 S5) (?v1 S5) (?v2 S5)) (let ((?v_0 (f11 f13 ?v0))) (=> (= (f10 ?v_0 ?v1) f1) (=> (= (f10 (f11 f13 ?v1) ?v2) f1) (= (f10 ?v_0 ?v2) f1))))))
(assert (forall ((?v0 S2) (?v1 S2)) (=> (= (f3 (f4 f6 ?v0) ?v1) f1) (=> (= (f3 (f4 f6 ?v1) ?v0) f1) (= ?v1 ?v0)))))
(assert (forall ((?v0 S5) (?v1 S5)) (=> (= (f10 (f11 f13 ?v0) ?v1) f1) (=> (= (f10 (f11 f13 ?v1) ?v0) f1) (= ?v1 ?v0)))))
(assert (forall ((?v0 S2) (?v1 S2) (?v2 S2)) (let ((?v_0 (f4 f6 ?v2))) (=> (= (f3 (f4 f6 ?v0) ?v1) f1) (=> (= (f3 ?v_0 ?v0) f1) (= (f3 ?v_0 ?v1) f1))))))
(assert (forall ((?v0 S5) (?v1 S5) (?v2 S5)) (let ((?v_0 (f11 f13 ?v2))) (=> (= (f10 (f11 f13 ?v0) ?v1) f1) (=> (= (f10 ?v_0 ?v0) f1) (= (f10 ?v_0 ?v1) f1))))))
(assert (forall ((?v0 S2) (?v1 S2)) (=> (= (f3 (f4 f6 ?v0) ?v1) f1) (=> (= (f3 (f4 f6 ?v1) ?v0) f1) (= ?v0 ?v1)))))
(assert (forall ((?v0 S2) (?v1 S2)) (=> (=> (= (f3 (f4 f6 ?v0) ?v1) f1) false) (=> (=> (= (f3 (f4 f6 ?v1) ?v0) f1) false) false))))
(assert (forall ((?v0 S5) (?v1 S5)) (=> (=> (= (f10 (f11 f13 ?v0) ?v1) f1) false) (=> (=> (= (f10 (f11 f13 ?v1) ?v0) f1) false) false))))
(assert (forall ((?v0 S2) (?v1 S2) (?v2 S2)) (let ((?v_0 (f4 f8 ?v2))) (=> (= (f3 (f4 f6 ?v0) ?v1) f1) (=> (= (f3 ?v_0 ?v0) f1) (= (f3 ?v_0 ?v1) f1))))))
(assert (forall ((?v0 S5) (?v1 S5) (?v2 S5)) (let ((?v_0 (f11 f12 ?v2))) (=> (= (f10 (f11 f13 ?v0) ?v1) f1) (=> (= (f10 ?v_0 ?v0) f1) (= (f10 ?v_0 ?v1) f1))))))
(assert (forall ((?v0 S2) (?v1 S2) (?v2 S2)) (=> (= (f3 (f4 f6 ?v0) ?v1) f1) (=> (= (f3 (f4 f8 ?v1) ?v2) f1) (= (f3 (f4 f8 ?v0) ?v2) f1)))))
(assert (forall ((?v0 S5) (?v1 S5) (?v2 S5)) (=> (= (f10 (f11 f13 ?v0) ?v1) f1) (=> (= (f10 (f11 f12 ?v1) ?v2) f1) (= (f10 (f11 f12 ?v0) ?v2) f1)))))
(assert (forall ((?v0 S2) (?v1 S2) (?v2 S2)) (=> (= (f3 (f4 f8 ?v0) ?v1) f1) (=> (= (f3 (f4 f6 ?v2) ?v0) f1) (= (f3 (f4 f8 ?v2) ?v1) f1)))))
(assert (forall ((?v0 S5) (?v1 S5) (?v2 S5)) (=> (= (f10 (f11 f12 ?v0) ?v1) f1) (=> (= (f10 (f11 f13 ?v2) ?v0) f1) (= (f10 (f11 f12 ?v2) ?v1) f1)))))
(assert (forall ((?v0 S2) (?v1 S2) (?v2 S2)) (let ((?v_0 (f4 f8 ?v0))) (=> (= (f3 ?v_0 ?v1) f1) (=> (= (f3 (f4 f6 ?v1) ?v2) f1) (= (f3 ?v_0 ?v2) f1))))))
(assert (forall ((?v0 S5) (?v1 S5) (?v2 S5)) (let ((?v_0 (f11 f12 ?v0))) (=> (= (f10 ?v_0 ?v1) f1) (=> (= (f10 (f11 f13 ?v1) ?v2) f1) (= (f10 ?v_0 ?v2) f1))))))
(assert (forall ((?v0 S2) (?v1 S2)) (=> (= (f3 (f4 f6 ?v0) ?v1) f1) (=> (not (= ?v1 ?v0)) (= (f3 (f4 f8 ?v0) ?v1) f1)))))
(assert (forall ((?v0 S5) (?v1 S5)) (=> (= (f10 (f11 f13 ?v0) ?v1) f1) (=> (not (= ?v1 ?v0)) (= (f10 (f11 f12 ?v0) ?v1) f1)))))
(assert (forall ((?v0 S2) (?v1 S2)) (=> (= (f3 (f4 f6 ?v0) ?v1) f1) (=> (not (= ?v0 ?v1)) (= (f3 (f4 f8 ?v0) ?v1) f1)))))
(assert (forall ((?v0 S5) (?v1 S5)) (=> (= (f10 (f11 f13 ?v0) ?v1) f1) (=> (not (= ?v0 ?v1)) (= (f10 (f11 f12 ?v0) ?v1) f1)))))
(assert (forall ((?v0 S2) (?v1 S2)) (=> (= (f3 (f4 f6 ?v0) ?v1) f1) (or (= (f3 (f4 f8 ?v0) ?v1) f1) (= ?v0 ?v1)))))
(assert (forall ((?v0 S5) (?v1 S5)) (=> (= (f10 (f11 f13 ?v0) ?v1) f1) (or (= (f10 (f11 f12 ?v0) ?v1) f1) (= ?v0 ?v1)))))
(assert (forall ((?v0 S2) (?v1 S2)) (=> (= (f3 (f4 f6 ?v0) ?v1) f1) (= (not (= (f3 (f4 f8 ?v0) ?v1) f1)) (= ?v0 ?v1)))))
(assert (forall ((?v0 S5) (?v1 S5)) (=> (= (f10 (f11 f13 ?v0) ?v1) f1) (= (not (= (f10 (f11 f12 ?v0) ?v1) f1)) (= ?v0 ?v1)))))
(assert (forall ((?v0 S2) (?v1 S2)) (=> (= (f3 (f4 f8 ?v0) ?v1) f1) (= (f3 (f4 f6 ?v0) ?v1) f1))))
(assert (forall ((?v0 S5) (?v1 S5)) (=> (= (f10 (f11 f12 ?v0) ?v1) f1) (= (f10 (f11 f13 ?v0) ?v1) f1))))
(assert (forall ((?v0 S2) (?v1 S2)) (=> (= (f3 (f4 f6 ?v0) ?v1) f1) (not (= (f3 (f4 f8 ?v1) ?v0) f1)))))
(assert (forall ((?v0 S5) (?v1 S5)) (=> (= (f10 (f11 f13 ?v0) ?v1) f1) (not (= (f10 (f11 f12 ?v1) ?v0) f1)))))
(assert (forall ((?v0 S2) (?v1 S2)) (=> (not (= ?v0 ?v1)) (=> (= (f3 (f4 f6 ?v1) ?v0) f1) (= (f3 (f4 f8 ?v1) ?v0) f1)))))
(assert (forall ((?v0 S5) (?v1 S5)) (=> (not (= ?v0 ?v1)) (=> (= (f10 (f11 f13 ?v1) ?v0) f1) (= (f10 (f11 f12 ?v1) ?v0) f1)))))
(assert (forall ((?v0 S2) (?v1 S2)) (=> (not (= ?v0 ?v1)) (=> (= (f3 (f4 f6 ?v0) ?v1) f1) (= (f3 (f4 f8 ?v0) ?v1) f1)))))
(assert (forall ((?v0 S5) (?v1 S5)) (=> (not (= ?v0 ?v1)) (=> (= (f10 (f11 f13 ?v0) ?v1) f1) (= (f10 (f11 f12 ?v0) ?v1) f1)))))
(assert (forall ((?v0 S2) (?v1 S2)) (=> (not (= (f3 (f4 f8 ?v0) ?v1) f1)) (= (= (f3 (f4 f6 ?v0) ?v1) f1) (= ?v0 ?v1)))))
(assert (forall ((?v0 S5) (?v1 S5)) (=> (not (= (f10 (f11 f12 ?v0) ?v1) f1)) (= (= (f10 (f11 f13 ?v0) ?v1) f1) (= ?v0 ?v1)))))
(assert (forall ((?v0 S2) (?v1 S2)) (=> (not (= (f3 (f4 f6 ?v0) ?v1) f1)) (= (f3 (f4 f8 ?v1) ?v0) f1))))
(assert (forall ((?v0 S5) (?v1 S5)) (=> (not (= (f10 (f11 f13 ?v0) ?v1) f1)) (= (f10 (f11 f12 ?v1) ?v0) f1))))
(assert (forall ((?v0 S2) (?v1 S2)) (=> (not (= (f3 (f4 f8 ?v0) ?v1) f1)) (= (f3 (f4 f6 ?v1) ?v0) f1))))
(assert (forall ((?v0 S5) (?v1 S5)) (=> (not (= (f10 (f11 f12 ?v0) ?v1) f1)) (= (f10 (f11 f13 ?v1) ?v0) f1))))
(assert (forall ((?v0 S2) (?v1 S2)) (= (= (f3 (f4 f6 ?v0) ?v1) f1) (or (= (f3 (f4 f8 ?v0) ?v1) f1) (= ?v0 ?v1)))))
(assert (forall ((?v0 S5) (?v1 S5)) (= (= (f10 (f11 f13 ?v0) ?v1) f1) (or (= (f10 (f11 f12 ?v0) ?v1) f1) (= ?v0 ?v1)))))
(assert (forall ((?v0 S2) (?v1 S2)) (= (= (f3 (f4 f8 ?v0) ?v1) f1) (and (= (f3 (f4 f6 ?v0) ?v1) f1) (not (= (f3 (f4 f6 ?v1) ?v0) f1))))))
(assert (forall ((?v0 S5) (?v1 S5)) (= (= (f10 (f11 f12 ?v0) ?v1) f1) (and (= (f10 (f11 f13 ?v0) ?v1) f1) (not (= (f10 (f11 f13 ?v1) ?v0) f1))))))
(assert (forall ((?v0 S2) (?v1 S2)) (= (= (f3 (f4 f8 ?v0) ?v1) f1) (and (= (f3 (f4 f6 ?v0) ?v1) f1) (not (= ?v0 ?v1))))))
(assert (forall ((?v0 S5) (?v1 S5)) (= (= (f10 (f11 f12 ?v0) ?v1) f1) (and (= (f10 (f11 f13 ?v0) ?v1) f1) (not (= ?v0 ?v1))))))
(assert (forall ((?v0 S2) (?v1 S2)) (or (= (f3 (f4 f6 ?v0) ?v1) f1) (= (f3 (f4 f8 ?v1) ?v0) f1))))
(assert (forall ((?v0 S5) (?v1 S5)) (or (= (f10 (f11 f13 ?v0) ?v1) f1) (= (f10 (f11 f12 ?v1) ?v0) f1))))
(assert (forall ((?v0 S2) (?v1 S2)) (= (not (= (f3 (f4 f6 ?v0) ?v1) f1)) (= (f3 (f4 f8 ?v1) ?v0) f1))))
(assert (forall ((?v0 S5) (?v1 S5)) (= (not (= (f10 (f11 f13 ?v0) ?v1) f1)) (= (f10 (f11 f12 ?v1) ?v0) f1))))
(assert (forall ((?v0 S2) (?v1 S2)) (= (not (= (f3 (f4 f8 ?v0) ?v1) f1)) (= (f3 (f4 f6 ?v1) ?v0) f1))))
(assert (forall ((?v0 S5) (?v1 S5)) (= (not (= (f10 (f11 f12 ?v0) ?v1) f1)) (= (f10 (f11 f13 ?v1) ?v0) f1))))
(assert (forall ((?v0 S2) (?v1 S2)) (= (= (f3 (f4 f8 ?v0) ?v1) f1) (and (= (f3 (f4 f6 ?v0) ?v1) f1) (not (= ?v0 ?v1))))))
(assert (forall ((?v0 S2) (?v1 S2)) (=> (=> (= (f3 (f4 f8 ?v0) ?v1) f1) false) (=> (=> (= ?v0 ?v1) false) (=> (=> (= (f3 (f4 f8 ?v1) ?v0) f1) false) false)))))
(assert (forall ((?v0 S5) (?v1 S5)) (=> (=> (= (f10 (f11 f12 ?v0) ?v1) f1) false) (=> (=> (= ?v0 ?v1) false) (=> (=> (= (f10 (f11 f12 ?v1) ?v0) f1) false) false)))))
(assert (forall ((?v0 S2) (?v1 S2)) (=> (= (f3 (f4 f8 ?v0) ?v1) f1) (=> (=> (not false) (= (f3 (f4 f8 ?v1) ?v0) f1)) false))))
(assert (forall ((?v0 S5) (?v1 S5)) (=> (= (f10 (f11 f12 ?v0) ?v1) f1) (=> (=> (not false) (= (f10 (f11 f12 ?v1) ?v0) f1)) false))))
(assert (forall ((?v0 S2) (?v1 S2) (?v2 S2)) (let ((?v_0 (f4 f8 ?v2))) (=> (= (f3 (f4 f8 ?v0) ?v1) f1) (=> (= (f3 ?v_0 ?v0) f1) (= (f3 ?v_0 ?v1) f1))))))
(assert (forall ((?v0 S5) (?v1 S5) (?v2 S5)) (let ((?v_0 (f11 f12 ?v2))) (=> (= (f10 (f11 f12 ?v0) ?v1) f1) (=> (= (f10 ?v_0 ?v0) f1) (= (f10 ?v_0 ?v1) f1))))))
(assert (forall ((?v0 S2) (?v1 S2) (?v2 S2)) (let ((?v_0 (f4 f8 ?v0))) (=> (= (f3 ?v_0 ?v1) f1) (=> (= (f3 (f4 f8 ?v1) ?v2) f1) (= (f3 ?v_0 ?v2) f1))))))
(assert (forall ((?v0 S5) (?v1 S5) (?v2 S5)) (let ((?v_0 (f11 f12 ?v0))) (=> (= (f10 ?v_0 ?v1) f1) (=> (= (f10 (f11 f12 ?v1) ?v2) f1) (= (f10 ?v_0 ?v2) f1))))))
(assert (forall ((?v0 S2) (?v1 S2) (?v2 S2)) (=> (= (f3 (f4 f8 ?v0) ?v1) f1) (=> (= ?v0 ?v2) (= (f3 (f4 f8 ?v2) ?v1) f1)))))
(assert (forall ((?v0 S5) (?v1 S5) (?v2 S5)) (=> (= (f10 (f11 f12 ?v0) ?v1) f1) (=> (= ?v0 ?v2) (= (f10 (f11 f12 ?v2) ?v1) f1)))))
(assert (forall ((?v0 S2) (?v1 S2) (?v2 S2)) (let ((?v_0 (f4 f8 ?v0))) (=> (= (f3 ?v_0 ?v1) f1) (=> (= ?v1 ?v2) (= (f3 ?v_0 ?v2) f1))))))
(assert (forall ((?v0 S5) (?v1 S5) (?v2 S5)) (let ((?v_0 (f11 f12 ?v0))) (=> (= (f10 ?v_0 ?v1) f1) (=> (= ?v1 ?v2) (= (f10 ?v_0 ?v2) f1))))))
(assert (forall ((?v0 S2) (?v1 S2) (?v2 S2)) (let ((?v_0 (f4 f8 ?v2))) (=> (= ?v0 ?v1) (=> (= (f3 ?v_0 ?v1) f1) (= (f3 ?v_0 ?v0) f1))))))
(assert (forall ((?v0 S5) (?v1 S5) (?v2 S5)) (let ((?v_0 (f11 f12 ?v2))) (=> (= ?v0 ?v1) (=> (= (f10 ?v_0 ?v1) f1) (= (f10 ?v_0 ?v0) f1))))))
(assert (forall ((?v0 S2) (?v1 S2) (?v2 S2)) (=> (= ?v0 ?v1) (=> (= (f3 (f4 f8 ?v1) ?v2) f1) (= (f3 (f4 f8 ?v0) ?v2) f1)))))
(assert (forall ((?v0 S5) (?v1 S5) (?v2 S5)) (=> (= ?v0 ?v1) (=> (= (f10 (f11 f12 ?v1) ?v2) f1) (= (f10 (f11 f12 ?v0) ?v2) f1)))))
(assert (forall ((?v0 S2) (?v1 S2)) (=> (= (f3 (f4 f8 ?v0) ?v1) f1) (=> (= (f3 (f4 f8 ?v1) ?v0) f1) false))))
(assert (forall ((?v0 S5) (?v1 S5)) (=> (= (f10 (f11 f12 ?v0) ?v1) f1) (=> (= (f10 (f11 f12 ?v1) ?v0) f1) false))))
(assert (forall ((?v0 S2) (?v1 S2)) (=> (= (f3 (f4 f8 ?v0) ?v1) f1) (=> (= (f3 (f4 f8 ?v1) ?v0) f1) false))))
(assert (forall ((?v0 S5) (?v1 S5)) (=> (= (f10 (f11 f12 ?v0) ?v1) f1) (=> (= (f10 (f11 f12 ?v1) ?v0) f1) false))))
(assert (forall ((?v0 S2) (?v1 S2) (?v2 S1)) (=> (= (f3 (f4 f8 ?v0) ?v1) f1) (= (=> (= (f3 (f4 f8 ?v1) ?v0) f1) (= ?v2 f1)) true))))
(assert (forall ((?v0 S5) (?v1 S5) (?v2 S1)) (=> (= (f10 (f11 f12 ?v0) ?v1) f1) (= (=> (= (f10 (f11 f12 ?v1) ?v0) f1) (= ?v2 f1)) true))))
(assert (forall ((?v0 S2) (?v1 S2)) (=> (= (f3 (f4 f8 ?v0) ?v1) f1) (= (= ?v1 ?v0) false))))
(assert (forall ((?v0 S5) (?v1 S5)) (=> (= (f10 (f11 f12 ?v0) ?v1) f1) (= (= ?v1 ?v0) false))))
(assert (forall ((?v0 S2) (?v1 S3)) (= (= (f14 (f15 f16 ?v0) ?v1) f1) (= (f3 ?v1 ?v0) f1))))
(assert (forall ((?v0 S3)) (= (f17 f18 ?v0) ?v0)))
(assert (forall ((?v0 S2) (?v1 S2) (?v2 S2)) (=> (= (f3 (f4 f8 ?v0) ?v1) f1) (=> (= (f3 (f4 f8 ?v2) ?v1) f1) (or (= (f3 (f4 f6 ?v0) ?v2) f1) (= (f3 (f4 f6 ?v2) ?v0) f1))))))
(assert (= (f3 (f4 f6 f7) f7) f1))
(assert (forall ((?v0 S2) (?v1 S1) (?v2 S1)) (let ((?v_0 (= (f3 (f4 f6 f7) ?v0) f1)) (?v_1 (= ?v1 f1)) (?v_2 (= ?v2 f1))) (=> (=> ?v_0 (= ?v_1 ?v_2)) (= (and ?v_0 ?v_1) (and ?v_0 ?v_2))))))
(assert (forall ((?v0 S2) (?v1 S1) (?v2 S1)) (let ((?v_0 (= (f3 (f4 f6 f7) ?v0) f1)) (?v_1 (= ?v1 f1)) (?v_2 (= ?v2 f1))) (=> (=> ?v_0 (= ?v_1 ?v_2)) (= (=> ?v_0 ?v_1) (=> ?v_0 ?v_2))))))
(assert (forall ((?v0 S2) (?v1 S2)) (=> (= (f3 (f4 f6 ?v0) ?v1) f1) (=> (not (= ?v0 ?v1)) (= (f3 (f4 f8 ?v0) ?v1) f1)))))
(assert (forall ((?v0 S5) (?v1 S5)) (=> (= (f10 (f11 f13 ?v0) ?v1) f1) (=> (not (= ?v0 ?v1)) (= (f10 (f11 f12 ?v0) ?v1) f1)))))
(assert (forall ((?v0 S2)) (= (f4 f19 ?v0) (f17 f18 (f4 f5 ?v0)))))
(assert (forall ((?v0 S2)) (exists ((?v1 S2)) (forall ((?v2 S2)) (=> (= (f3 (f4 f8 ?v1) ?v2) f1) (= (= (f3 (f4 f6 ?v2) ?v0) f1) false))))))
(assert (forall ((?v0 S5)) (exists ((?v1 S5)) (forall ((?v2 S5)) (=> (= (f10 (f11 f12 ?v1) ?v2) f1) (= (= (f10 (f11 f13 ?v2) ?v0) f1) false))))))
(assert (forall ((?v0 S2)) (exists ((?v1 S2)) (forall ((?v2 S2)) (=> (= (f3 (f4 f8 ?v2) ?v1) f1) (= (= (f3 (f4 f6 ?v2) ?v0) f1) true))))))
(assert (forall ((?v0 S5)) (exists ((?v1 S5)) (forall ((?v2 S5)) (=> (= (f10 (f11 f12 ?v2) ?v1) f1) (= (= (f10 (f11 f13 ?v2) ?v0) f1) true))))))
(assert (forall ((?v0 S2)) (exists ((?v1 S2)) (forall ((?v2 S2)) (=> (= (f3 (f4 f8 ?v1) ?v2) f1) (= (= (f3 (f4 f6 ?v0) ?v2) f1) true))))))
(assert (forall ((?v0 S5)) (exists ((?v1 S5)) (forall ((?v2 S5)) (=> (= (f10 (f11 f12 ?v1) ?v2) f1) (= (= (f10 (f11 f13 ?v0) ?v2) f1) true))))))
(assert (forall ((?v0 S2)) (exists ((?v1 S2)) (forall ((?v2 S2)) (=> (= (f3 (f4 f8 ?v2) ?v1) f1) (= (= (f3 (f4 f6 ?v0) ?v2) f1) false))))))
(assert (forall ((?v0 S5)) (exists ((?v1 S5)) (forall ((?v2 S5)) (=> (= (f10 (f11 f12 ?v2) ?v1) f1) (= (= (f10 (f11 f13 ?v0) ?v2) f1) false))))))
(assert (forall ((?v0 S2) (?v1 S2)) (let ((?v_0 (f4 f6 f7))) (=> (= (f3 ?v_0 ?v0) f1) (=> (= (f3 ?v_0 ?v1) f1) (= (f3 ?v_0 (f20 (f21 f22 ?v0) ?v1)) f1))))))
(assert (forall ((?v0 S2) (?v1 S2) (?v2 S11) (?v3 S2)) (=> (= (f3 (f4 f8 ?v0) ?v1) f1) (=> (= (f20 ?v2 ?v0) ?v3) (=> (forall ((?v4 S2) (?v5 S2)) (=> (= (f3 (f4 f8 ?v5) ?v4) f1) (= (f3 (f4 f8 (f20 ?v2 ?v5)) (f20 ?v2 ?v4)) f1))) (= (f3 (f4 f8 ?v3) (f20 ?v2 ?v1)) f1))))))
(assert (forall ((?v0 S5) (?v1 S5) (?v2 S13) (?v3 S5)) (=> (= (f10 (f11 f12 ?v0) ?v1) f1) (=> (= (f23 ?v2 ?v0) ?v3) (=> (forall ((?v4 S5) (?v5 S5)) (=> (= (f10 (f11 f12 ?v5) ?v4) f1) (= (f10 (f11 f12 (f23 ?v2 ?v5)) (f23 ?v2 ?v4)) f1))) (= (f10 (f11 f12 ?v3) (f23 ?v2 ?v1)) f1))))))
(assert (forall ((?v0 S3) (?v1 S3) (?v2 S3) (?v3 S3)) (=> (exists ((?v4 S2)) (forall ((?v5 S2)) (=> (= (f3 (f4 f8 ?v4) ?v5) f1) (= (= (f3 ?v0 ?v5) f1) (= (f3 ?v1 ?v5) f1))))) (=> (exists ((?v4 S2)) (forall ((?v5 S2)) (=> (= (f3 (f4 f8 ?v4) ?v5) f1) (= (= (f3 ?v2 ?v5) f1) (= (f3 ?v3 ?v5) f1))))) (exists ((?v4 S2)) (forall ((?v5 S2)) (=> (= (f3 (f4 f8 ?v4) ?v5) f1) (= (or (= (f3 ?v0 ?v5) f1) (= (f3 ?v2 ?v5) f1)) (or (= (f3 ?v1 ?v5) f1) (= (f3 ?v3 ?v5) f1))))))))))
(assert (forall ((?v0 S6) (?v1 S6) (?v2 S6) (?v3 S6)) (=> (exists ((?v4 S5)) (forall ((?v5 S5)) (=> (= (f10 (f11 f12 ?v4) ?v5) f1) (= (= (f10 ?v0 ?v5) f1) (= (f10 ?v1 ?v5) f1))))) (=> (exists ((?v4 S5)) (forall ((?v5 S5)) (=> (= (f10 (f11 f12 ?v4) ?v5) f1) (= (= (f10 ?v2 ?v5) f1) (= (f10 ?v3 ?v5) f1))))) (exists ((?v4 S5)) (forall ((?v5 S5)) (=> (= (f10 (f11 f12 ?v4) ?v5) f1) (= (or (= (f10 ?v0 ?v5) f1) (= (f10 ?v2 ?v5) f1)) (or (= (f10 ?v1 ?v5) f1) (= (f10 ?v3 ?v5) f1))))))))))
(assert (forall ((?v0 S3) (?v1 S3) (?v2 S3) (?v3 S3)) (=> (exists ((?v4 S2)) (forall ((?v5 S2)) (=> (= (f3 (f4 f8 ?v4) ?v5) f1) (= (= (f3 ?v0 ?v5) f1) (= (f3 ?v1 ?v5) f1))))) (=> (exists ((?v4 S2)) (forall ((?v5 S2)) (=> (= (f3 (f4 f8 ?v4) ?v5) f1) (= (= (f3 ?v2 ?v5) f1) (= (f3 ?v3 ?v5) f1))))) (exists ((?v4 S2)) (forall ((?v5 S2)) (=> (= (f3 (f4 f8 ?v4) ?v5) f1) (= (and (= (f3 ?v0 ?v5) f1) (= (f3 ?v2 ?v5) f1)) (and (= (f3 ?v1 ?v5) f1) (= (f3 ?v3 ?v5) f1))))))))))
(assert (forall ((?v0 S6) (?v1 S6) (?v2 S6) (?v3 S6)) (=> (exists ((?v4 S5)) (forall ((?v5 S5)) (=> (= (f10 (f11 f12 ?v4) ?v5) f1) (= (= (f10 ?v0 ?v5) f1) (= (f10 ?v1 ?v5) f1))))) (=> (exists ((?v4 S5)) (forall ((?v5 S5)) (=> (= (f10 (f11 f12 ?v4) ?v5) f1) (= (= (f10 ?v2 ?v5) f1) (= (f10 ?v3 ?v5) f1))))) (exists ((?v4 S5)) (forall ((?v5 S5)) (=> (= (f10 (f11 f12 ?v4) ?v5) f1) (= (and (= (f10 ?v0 ?v5) f1) (= (f10 ?v2 ?v5) f1)) (and (= (f10 ?v1 ?v5) f1) (= (f10 ?v3 ?v5) f1))))))))))
(assert (forall ((?v0 S3) (?v1 S3) (?v2 S3) (?v3 S3)) (=> (exists ((?v4 S2)) (forall ((?v5 S2)) (=> (= (f3 (f4 f8 ?v5) ?v4) f1) (= (= (f3 ?v0 ?v5) f1) (= (f3 ?v1 ?v5) f1))))) (=> (exists ((?v4 S2)) (forall ((?v5 S2)) (=> (= (f3 (f4 f8 ?v5) ?v4) f1) (= (= (f3 ?v2 ?v5) f1) (= (f3 ?v3 ?v5) f1))))) (exists ((?v4 S2)) (forall ((?v5 S2)) (=> (= (f3 (f4 f8 ?v5) ?v4) f1) (= (or (= (f3 ?v0 ?v5) f1) (= (f3 ?v2 ?v5) f1)) (or (= (f3 ?v1 ?v5) f1) (= (f3 ?v3 ?v5) f1))))))))))
(assert (forall ((?v0 S6) (?v1 S6) (?v2 S6) (?v3 S6)) (=> (exists ((?v4 S5)) (forall ((?v5 S5)) (=> (= (f10 (f11 f12 ?v5) ?v4) f1) (= (= (f10 ?v0 ?v5) f1) (= (f10 ?v1 ?v5) f1))))) (=> (exists ((?v4 S5)) (forall ((?v5 S5)) (=> (= (f10 (f11 f12 ?v5) ?v4) f1) (= (= (f10 ?v2 ?v5) f1) (= (f10 ?v3 ?v5) f1))))) (exists ((?v4 S5)) (forall ((?v5 S5)) (=> (= (f10 (f11 f12 ?v5) ?v4) f1) (= (or (= (f10 ?v0 ?v5) f1) (= (f10 ?v2 ?v5) f1)) (or (= (f10 ?v1 ?v5) f1) (= (f10 ?v3 ?v5) f1))))))))))
(assert (forall ((?v0 S3) (?v1 S3) (?v2 S3) (?v3 S3)) (=> (exists ((?v4 S2)) (forall ((?v5 S2)) (=> (= (f3 (f4 f8 ?v5) ?v4) f1) (= (= (f3 ?v0 ?v5) f1) (= (f3 ?v1 ?v5) f1))))) (=> (exists ((?v4 S2)) (forall ((?v5 S2)) (=> (= (f3 (f4 f8 ?v5) ?v4) f1) (= (= (f3 ?v2 ?v5) f1) (= (f3 ?v3 ?v5) f1))))) (exists ((?v4 S2)) (forall ((?v5 S2)) (=> (= (f3 (f4 f8 ?v5) ?v4) f1) (= (and (= (f3 ?v0 ?v5) f1) (= (f3 ?v2 ?v5) f1)) (and (= (f3 ?v1 ?v5) f1) (= (f3 ?v3 ?v5) f1))))))))))
(assert (forall ((?v0 S6) (?v1 S6) (?v2 S6) (?v3 S6)) (=> (exists ((?v4 S5)) (forall ((?v5 S5)) (=> (= (f10 (f11 f12 ?v5) ?v4) f1) (= (= (f10 ?v0 ?v5) f1) (= (f10 ?v1 ?v5) f1))))) (=> (exists ((?v4 S5)) (forall ((?v5 S5)) (=> (= (f10 (f11 f12 ?v5) ?v4) f1) (= (= (f10 ?v2 ?v5) f1) (= (f10 ?v3 ?v5) f1))))) (exists ((?v4 S5)) (forall ((?v5 S5)) (=> (= (f10 (f11 f12 ?v5) ?v4) f1) (= (and (= (f10 ?v0 ?v5) f1) (= (f10 ?v2 ?v5) f1)) (and (= (f10 ?v1 ?v5) f1) (= (f10 ?v3 ?v5) f1))))))))))
(assert (forall ((?v0 S2)) (exists ((?v1 S2)) (forall ((?v2 S2)) (=> (= (f3 (f4 f8 ?v1) ?v2) f1) (= (= (f3 (f4 f8 ?v2) ?v0) f1) false))))))
(assert (forall ((?v0 S5)) (exists ((?v1 S5)) (forall ((?v2 S5)) (=> (= (f10 (f11 f12 ?v1) ?v2) f1) (= (= (f10 (f11 f12 ?v2) ?v0) f1) false))))))
(assert (forall ((?v0 S2) (?v1 S11) (?v2 S2) (?v3 S2)) (=> (= ?v0 (f20 ?v1 ?v2)) (=> (= (f3 (f4 f8 ?v3) ?v2) f1) (=> (forall ((?v4 S2) (?v5 S2)) (=> (= (f3 (f4 f8 ?v5) ?v4) f1) (= (f3 (f4 f8 (f20 ?v1 ?v5)) (f20 ?v1 ?v4)) f1))) (= (f3 (f4 f8 (f20 ?v1 ?v3)) ?v0) f1))))))
(assert (forall ((?v0 S5) (?v1 S13) (?v2 S5) (?v3 S5)) (=> (= ?v0 (f23 ?v1 ?v2)) (=> (= (f10 (f11 f12 ?v3) ?v2) f1) (=> (forall ((?v4 S5) (?v5 S5)) (=> (= (f10 (f11 f12 ?v5) ?v4) f1) (= (f10 (f11 f12 (f23 ?v1 ?v5)) (f23 ?v1 ?v4)) f1))) (= (f10 (f11 f12 (f23 ?v1 ?v3)) ?v0) f1))))))
(assert (forall ((?v0 S2)) (exists ((?v1 S2)) (forall ((?v2 S2)) (=> (= (f3 (f4 f8 ?v1) ?v2) f1) (= (= ?v2 ?v0) false))))))
(assert (forall ((?v0 S5)) (exists ((?v1 S5)) (forall ((?v2 S5)) (=> (= (f10 (f11 f12 ?v1) ?v2) f1) (= (= ?v2 ?v0) false))))))
(assert (forall ((?v0 S2)) (exists ((?v1 S2)) (forall ((?v2 S2)) (let ((?v_0 (f4 f8 ?v2))) (=> (= (f3 ?v_0 ?v1) f1) (= (= (f3 ?v_0 ?v0) f1) true)))))))
(assert (forall ((?v0 S5)) (exists ((?v1 S5)) (forall ((?v2 S5)) (let ((?v_0 (f11 f12 ?v2))) (=> (= (f10 ?v_0 ?v1) f1) (= (= (f10 ?v_0 ?v0) f1) true)))))))
(assert (forall ((?v0 S2)) (exists ((?v1 S2)) (forall ((?v2 S2)) (=> (= (f3 (f4 f8 ?v2) ?v1) f1) (= (= ?v2 ?v0) false))))))
(assert (forall ((?v0 S5)) (exists ((?v1 S5)) (forall ((?v2 S5)) (=> (= (f10 (f11 f12 ?v2) ?v1) f1) (= (= ?v2 ?v0) false))))))
(assert (forall ((?v0 S2)) (exists ((?v1 S2)) (forall ((?v2 S2)) (=> (= (f3 (f4 f8 ?v1) ?v2) f1) (= (= (f3 (f4 f8 ?v0) ?v2) f1) true))))))
(assert (forall ((?v0 S5)) (exists ((?v1 S5)) (forall ((?v2 S5)) (=> (= (f10 (f11 f12 ?v1) ?v2) f1) (= (= (f10 (f11 f12 ?v0) ?v2) f1) true))))))
(assert (forall ((?v0 S2)) (exists ((?v1 S2)) (forall ((?v2 S2)) (=> (= (f3 (f4 f8 ?v2) ?v1) f1) (= (= (f3 (f4 f8 ?v0) ?v2) f1) false))))))
(assert (forall ((?v0 S5)) (exists ((?v1 S5)) (forall ((?v2 S5)) (=> (= (f10 (f11 f12 ?v2) ?v1) f1) (= (= (f10 (f11 f12 ?v0) ?v2) f1) false))))))
(assert (forall ((?v0 S2)) (exists ((?v1 S2)) (forall ((?v2 S2)) (=> (= (f3 (f4 f8 ?v2) ?v1) f1) (= (not (= ?v2 ?v0)) true))))))
(assert (forall ((?v0 S5)) (exists ((?v1 S5)) (forall ((?v2 S5)) (=> (= (f10 (f11 f12 ?v2) ?v1) f1) (= (not (= ?v2 ?v0)) true))))))
(assert (forall ((?v0 S2)) (exists ((?v1 S2)) (forall ((?v2 S2)) (=> (= (f3 (f4 f8 ?v1) ?v2) f1) (= (not (= ?v2 ?v0)) true))))))
(assert (forall ((?v0 S5)) (exists ((?v1 S5)) (forall ((?v2 S5)) (=> (= (f10 (f11 f12 ?v1) ?v2) f1) (= (not (= ?v2 ?v0)) true))))))
(assert (forall ((?v0 S2) (?v1 S2) (?v2 S11) (?v3 S2)) (=> (= (f3 (f4 f6 ?v0) ?v1) f1) (=> (= (f20 ?v2 ?v0) ?v3) (=> (forall ((?v4 S2) (?v5 S2)) (=> (= (f3 (f4 f6 ?v5) ?v4) f1) (= (f3 (f4 f6 (f20 ?v2 ?v5)) (f20 ?v2 ?v4)) f1))) (= (f3 (f4 f6 ?v3) (f20 ?v2 ?v1)) f1))))))
(assert (forall ((?v0 S5) (?v1 S5) (?v2 S13) (?v3 S5)) (=> (= (f10 (f11 f13 ?v0) ?v1) f1) (=> (= (f23 ?v2 ?v0) ?v3) (=> (forall ((?v4 S5) (?v5 S5)) (=> (= (f10 (f11 f13 ?v5) ?v4) f1) (= (f10 (f11 f13 (f23 ?v2 ?v5)) (f23 ?v2 ?v4)) f1))) (= (f10 (f11 f13 ?v3) (f23 ?v2 ?v1)) f1))))))
(assert (forall ((?v0 S2) (?v1 S11) (?v2 S2) (?v3 S2)) (=> (= ?v0 (f20 ?v1 ?v2)) (=> (= (f3 (f4 f6 ?v3) ?v2) f1) (=> (forall ((?v4 S2) (?v5 S2)) (=> (= (f3 (f4 f6 ?v5) ?v4) f1) (= (f3 (f4 f6 (f20 ?v1 ?v5)) (f20 ?v1 ?v4)) f1))) (= (f3 (f4 f6 (f20 ?v1 ?v3)) ?v0) f1))))))
(assert (forall ((?v0 S5) (?v1 S13) (?v2 S5) (?v3 S5)) (=> (= ?v0 (f23 ?v1 ?v2)) (=> (= (f10 (f11 f13 ?v3) ?v2) f1) (=> (forall ((?v4 S5) (?v5 S5)) (=> (= (f10 (f11 f13 ?v5) ?v4) f1) (= (f10 (f11 f13 (f23 ?v1 ?v5)) (f23 ?v1 ?v4)) f1))) (= (f10 (f11 f13 (f23 ?v1 ?v3)) ?v0) f1))))))
(assert (forall ((?v0 S2) (?v1 S2)) (=> (= (f3 (f4 f8 f7) ?v0) f1) (= (f3 (f4 f6 f7) (f20 (f21 f24 ?v0) ?v1)) f1))))
(assert (forall ((?v0 S2)) (= (= (f3 (f4 f6 (f20 f25 ?v0)) f7) f1) (= (f3 (f4 f6 ?v0) f7) f1))))
(assert (forall ((?v0 S2)) (let ((?v_0 (f4 f6 f7))) (= (= (f3 ?v_0 (f20 f25 ?v0)) f1) (= (f3 ?v_0 ?v0) f1)))))
(assert (= (f10 (f11 f12 f26) f27) f1))
(assert (forall ((?v0 S2) (?v1 S2)) (= (= (f20 f25 ?v0) (f20 f25 ?v1)) (= ?v0 ?v1))))
(assert (= (f20 f25 f7) f7))
(assert (forall ((?v0 S2)) (= (= f7 (f20 f25 ?v0)) (= ?v0 f7))))
(assert (forall ((?v0 S2)) (= (= (f20 f25 ?v0) f7) (= ?v0 f7))))
(assert (forall ((?v0 S2) (?v1 S2)) (= (= (f3 (f4 f8 (f20 f25 ?v0)) (f20 f25 ?v1)) f1) (= (f3 (f4 f8 ?v0) ?v1) f1))))
(assert (forall ((?v0 S2) (?v1 S2)) (= (= (f3 (f4 f6 (f20 f25 ?v0)) (f20 f25 ?v1)) f1) (= (f3 (f4 f6 ?v0) ?v1) f1))))
(assert (forall ((?v0 S2) (?v1 S2)) (=> (= (f14 (f15 f16 ?v0) (f4 f19 ?v1)) f1) (= (f20 (f21 f24 ?v1) ?v0) ?v0))))
(assert (forall ((?v0 S2) (?v1 S2)) (=> (= (f3 (f4 f8 f7) ?v0) f1) (= (f3 (f4 f8 (f20 (f21 f24 ?v0) ?v1)) ?v0) f1))))
(assert (forall ((?v0 S2)) (let ((?v_0 (f4 f8 f7))) (= (= (f3 ?v_0 (f20 f25 ?v0)) f1) (= (f3 ?v_0 ?v0) f1)))))
(assert (forall ((?v0 S2)) (= (= (f3 (f4 f8 (f20 f25 ?v0)) f7) f1) (= (f3 (f4 f8 ?v0) f7) f1))))
(assert (forall ((?v0 S2) (?v1 S2)) (= (f20 (f21 f22 ?v0) ?v1) (ite (= (f3 (f4 f6 ?v1) ?v0) f1) (f20 (f21 f28 ?v0) ?v1) f7))))
(assert (= (f10 (f11 f12 f26) f29) f1))
(assert (forall ((?v0 S2) (?v1 S2)) (= (f20 f25 (f20 (f21 f28 ?v0) ?v1)) (f20 (f21 f28 (f20 f25 ?v0)) (f20 f25 ?v1)))))
(assert (forall ((?v0 S2) (?v1 S2)) (= (= (f3 (f4 f8 ?v0) ?v1) f1) (= (f3 (f4 f8 (f20 (f21 f28 ?v0) ?v1)) f7) f1))))
(assert (forall ((?v0 S2) (?v1 S2)) (=> (= (f3 (f4 f6 ?v0) ?v1) f1) (= (f20 (f21 f22 ?v1) ?v0) (f20 (f21 f28 ?v1) ?v0)))))
(assert (forall ((?v0 S5)) (=> (= (f10 (f11 f12 ?v0) f26) f1) false)))
(assert (forall ((?v0 S2) (?v1 S2)) (= (= (f3 (f4 f8 ?v0) ?v1) f1) (= (f3 (f4 f8 (f20 (f21 f28 ?v0) ?v1)) f7) f1))))
(assert (forall ((?v0 S2) (?v1 S2)) (= (= (f3 (f4 f6 ?v0) ?v1) f1) (= (f3 (f4 f6 (f20 (f21 f28 ?v0) ?v1)) f7) f1))))
(assert (forall ((?v0 S5)) (= (f10 (f11 f13 f26) ?v0) f1)))
(assert (forall ((?v0 S5) (?v1 S5)) (let ((?v_0 (f11 f12 f26))) (=> (= (f10 ?v_0 ?v0) f1) (=> (= (f10 ?v_0 ?v1) f1) (= (f10 (f11 f12 (f23 (f30 f31 ?v1) ?v0)) ?v1) f1))))))
(assert (forall ((?v0 S5) (?v1 S5)) (= (= (f10 (f11 f12 f26) (f23 (f30 f31 ?v0) ?v1)) f1) (= (f10 (f11 f12 ?v1) ?v0) f1))))
(assert (forall ((?v0 S5) (?v1 S5)) (=> (= (f23 (f30 f31 ?v0) ?v1) f26) (=> (= (f23 (f30 f31 ?v1) ?v0) f26) (= ?v0 ?v1)))))
(assert (forall ((?v0 S5)) (= (f23 (f30 f31 ?v0) ?v0) f26)))
(assert (forall ((?v0 S5)) (= (f23 (f30 f31 ?v0) f26) ?v0)))
(assert (forall ((?v0 S5)) (= (f23 (f30 f31 f26) ?v0) f26)))
(assert (forall ((?v0 S5) (?v1 S5)) (=> (= (f10 (f11 f13 ?v0) ?v1) f1) (= (f23 (f30 f31 ?v0) ?v1) f26))))
(assert (forall ((?v0 S5) (?v1 S5)) (= (= (f23 (f30 f31 ?v0) ?v1) f26) (= (f10 (f11 f13 ?v0) ?v1) f1))))
(assert (forall ((?v0 S5) (?v1 S5) (?v2 S5)) (=> (= (f10 (f11 f12 ?v0) ?v1) f1) (= (f10 (f11 f12 (f23 (f30 f31 ?v0) ?v2)) ?v1) f1))))
(assert (forall ((?v0 S5) (?v1 S5) (?v2 S5)) (let ((?v_0 (f11 f12 ?v0)) (?v_1 (f30 f31 ?v2))) (=> (= (f10 ?v_0 ?v1) f1) (=> (= (f10 ?v_0 ?v2) f1) (= (f10 (f11 f12 (f23 ?v_1 ?v1)) (f23 ?v_1 ?v0)) f1))))))
(assert (forall ((?v0 S5) (?v1 S5) (?v2 S5)) (let ((?v_0 (f11 f13 ?v0))) (=> (= (f10 ?v_0 ?v1) f1) (=> (= (f10 ?v_0 ?v2) f1) (= (= (f10 (f11 f12 (f23 (f30 f31 ?v1) ?v0)) (f23 (f30 f31 ?v2) ?v0)) f1) (= (f10 (f11 f12 ?v1) ?v2) f1)))))))
(assert (forall ((?v0 S5) (?v1 S5) (?v2 S5)) (=> (= (f10 (f11 f12 ?v0) ?v1) f1) (=> (= (f10 (f11 f13 ?v2) ?v0) f1) (= (f10 (f11 f12 (f23 (f30 f31 ?v0) ?v2)) (f23 (f30 f31 ?v1) ?v2)) f1)))))
(assert (forall ((?v0 S2)) (= (= f7 ?v0) (= ?v0 f7))))
(assert (forall ((?v0 S5)) (= (= f26 ?v0) (= ?v0 f26))))
(assert (forall ((?v0 S2) (?v1 S2) (?v2 S2) (?v3 S2)) (=> (= (f20 (f21 f28 ?v0) ?v1) (f20 (f21 f28 ?v2) ?v3)) (= (= ?v0 ?v1) (= ?v2 ?v3)))))
(assert (forall ((?v0 S5)) (= (= (f10 (f11 f13 f26) ?v0) f1) true)))
(assert (forall ((?v0 S5)) (= (= (f10 (f11 f13 ?v0) f26) f1) (= ?v0 f26))))
(assert (forall ((?v0 S5) (?v1 S5)) (= (= (f10 (f11 f12 ?v0) ?v1) f1) (and (= (f10 (f11 f13 ?v0) ?v1) f1) (not (= ?v0 ?v1))))))
(assert (forall ((?v0 S5) (?v1 S5)) (= (= (f10 (f11 f13 ?v0) ?v1) f1) (or (= (f10 (f11 f12 ?v0) ?v1) f1) (= ?v0 ?v1)))))
(assert (forall ((?v0 S5) (?v1 S5)) (=> (= (f10 (f11 f12 ?v0) ?v1) f1) (= (f10 (f11 f13 ?v0) ?v1) f1))))
(assert (forall ((?v0 S5) (?v1 S5)) (=> (= (f10 (f11 f13 ?v0) ?v1) f1) (=> (not (= ?v0 ?v1)) (= (f10 (f11 f12 ?v0) ?v1) f1)))))
(assert (forall ((?v0 S5) (?v1 S5)) (=> (or (= (f10 (f11 f12 ?v0) ?v1) f1) (= ?v0 ?v1)) (= (f10 (f11 f13 ?v0) ?v1) f1))))
(assert (forall ((?v0 S5) (?v1 S5) (?v2 S7)) (let ((?v_0 (= (f10 (f11 ?v2 ?v1) ?v0) f1))) (=> (=> (= (f10 (f11 f12 ?v0) ?v1) f1) ?v_0) (=> (=> (= ?v0 ?v1) ?v_0) (=> (=> (= (f10 (f11 f12 ?v1) ?v0) f1) ?v_0) ?v_0))))))
(assert (forall ((?v0 S5) (?v1 S5)) (=> (= (f10 (f11 f12 ?v0) ?v1) f1) (not (= ?v0 ?v1)))))
(assert (forall ((?v0 S5) (?v1 S5)) (=> (= (f10 (f11 f12 ?v0) ?v1) f1) (not (= ?v1 ?v0)))))
(assert (forall ((?v0 S5)) (=> (= (f10 (f11 f12 ?v0) ?v0) f1) false)))
(assert (forall ((?v0 S5) (?v1 S5)) (=> (not (= ?v0 ?v1)) (=> (=> (= (f10 (f11 f12 ?v0) ?v1) f1) false) (=> (=> (= (f10 (f11 f12 ?v1) ?v0) f1) false) false)))))
(assert (forall ((?v0 S5) (?v1 S5)) (= (not (= ?v0 ?v1)) (or (= (f10 (f11 f12 ?v0) ?v1) f1) (= (f10 (f11 f12 ?v1) ?v0) f1)))))
(assert (forall ((?v0 S5)) (not (= (f10 (f11 f12 ?v0) ?v0) f1))))
(assert (forall ((?v0 S2)) (= (f20 (f21 f28 ?v0) f7) ?v0)))
(assert (forall ((?v0 S2)) (= (f20 (f21 f28 ?v0) ?v0) f7)))
(assert (forall ((?v0 S2) (?v1 S2)) (= (= ?v0 ?v1) (= (f20 (f21 f28 ?v0) ?v1) f7))))
(assert (forall ((?v0 S2) (?v1 S2)) (= (= (f20 (f21 f28 ?v0) ?v1) f7) (= ?v0 ?v1))))
(assert (forall ((?v0 S2) (?v1 S2) (?v2 S2) (?v3 S2)) (=> (= (f20 (f21 f28 ?v0) ?v1) (f20 (f21 f28 ?v2) ?v3)) (= (= (f3 (f4 f6 ?v0) ?v1) f1) (= (f3 (f4 f6 ?v2) ?v3) f1)))))
(assert (forall ((?v0 S2) (?v1 S2) (?v2 S2) (?v3 S2)) (=> (= (f20 (f21 f28 ?v0) ?v1) (f20 (f21 f28 ?v2) ?v3)) (= (= (f3 (f4 f8 ?v0) ?v1) f1) (= (f3 (f4 f8 ?v2) ?v3) f1)))))
(assert (forall ((?v0 S5)) (not (= (f10 (f11 f12 ?v0) f26) f1))))
(assert (forall ((?v0 S5)) (= (not (= ?v0 f26)) (= (f10 (f11 f12 f26) ?v0) f1))))
(assert (forall ((?v0 S5)) (= (= (f10 (f11 f12 ?v0) f26) f1) false)))
(assert (forall ((?v0 S5) (?v1 S5)) (=> (= (f10 (f11 f12 ?v0) ?v1) f1) (not (= ?v1 f26)))))
(assert (forall ((?v0 S5)) (=> (=> (= ?v0 f26) false) (= (f10 (f11 f12 f26) ?v0) f1))))
(assert (forall ((?v0 S6) (?v1 S5)) (=> (not (= (f10 ?v0 f26) f1)) (=> (= (f10 ?v0 ?v1) f1) (exists ((?v2 S5)) (and (= (f10 (f11 f13 ?v2) ?v1) f1) (and (forall ((?v3 S5)) (=> (= (f10 (f11 f12 ?v3) ?v2) f1) (not (= (f10 ?v0 ?v3) f1)))) (= (f10 ?v0 ?v2) f1))))))))
(assert (forall ((?v0 S13) (?v1 S5) (?v2 S5)) (=> (forall ((?v3 S5) (?v4 S5)) (=> (= (f10 (f11 f12 ?v3) ?v4) f1) (= (f10 (f11 f12 (f23 ?v0 ?v3)) (f23 ?v0 ?v4)) f1))) (=> (= (f10 (f11 f13 ?v1) ?v2) f1) (= (f10 (f11 f13 (f23 ?v0 ?v1)) (f23 ?v0 ?v2)) f1)))))
(assert (forall ((?v0 S5) (?v1 S5)) (= (f10 (f11 f13 (f23 (f30 f31 ?v0) ?v1)) ?v0) f1)))
(assert (forall ((?v0 S5) (?v1 S5) (?v2 S5)) (let ((?v_0 (f30 f31 ?v2))) (=> (= (f10 (f11 f13 ?v0) ?v1) f1) (= (f10 (f11 f13 (f23 ?v_0 ?v1)) (f23 ?v_0 ?v0)) f1)))))
(assert (forall ((?v0 S5) (?v1 S5) (?v2 S5)) (=> (= (f10 (f11 f13 ?v0) ?v1) f1) (= (f10 (f11 f13 (f23 (f30 f31 ?v0) ?v2)) (f23 (f30 f31 ?v1) ?v2)) f1))))
(assert (forall ((?v0 S5) (?v1 S5)) (let ((?v_0 (f30 f31 ?v1))) (=> (= (f10 (f11 f13 ?v0) ?v1) f1) (= (f23 ?v_0 (f23 ?v_0 ?v0)) ?v0)))))
(assert (forall ((?v0 S5) (?v1 S5) (?v2 S5)) (let ((?v_0 (f11 f13 ?v0))) (=> (= (f10 ?v_0 ?v1) f1) (=> (= (f10 ?v_0 ?v2) f1) (= (= (f23 (f30 f31 ?v1) ?v0) (f23 (f30 f31 ?v2) ?v0)) (= ?v1 ?v2)))))))
(assert (forall ((?v0 S5) (?v1 S5) (?v2 S5)) (let ((?v_0 (f11 f13 ?v0)) (?v_1 (f30 f31 ?v1))) (=> (= (f10 ?v_0 ?v1) f1) (=> (= (f10 ?v_0 ?v2) f1) (= (f23 (f30 f31 (f23 ?v_1 ?v0)) (f23 (f30 f31 ?v2) ?v0)) (f23 ?v_1 ?v2)))))))
(assert (forall ((?v0 S5) (?v1 S5) (?v2 S5)) (let ((?v_0 (f11 f13 ?v0))) (=> (= (f10 ?v_0 ?v1) f1) (=> (= (f10 ?v_0 ?v2) f1) (= (= (f10 (f11 f13 (f23 (f30 f31 ?v1) ?v0)) (f23 (f30 f31 ?v2) ?v0)) f1) (= (f10 (f11 f13 ?v1) ?v2) f1)))))))
(assert (forall ((?v0 S5) (?v1 S5) (?v2 S5)) (let ((?v_0 (f30 f31 ?v0))) (= (f23 (f30 f31 (f23 ?v_0 ?v1)) ?v2) (f23 (f30 f31 (f23 ?v_0 ?v2)) ?v1)))))
(assert (forall ((?v0 S5) (?v1 S5)) (=> (= (f10 (f11 f13 ?v0) ?v1) f1) (=> (= (f10 (f11 f13 ?v1) ?v0) f1) (= ?v0 ?v1)))))
(assert (forall ((?v0 S5) (?v1 S5) (?v2 S5)) (let ((?v_0 (f11 f13 ?v0))) (=> (= (f10 ?v_0 ?v1) f1) (=> (= (f10 (f11 f13 ?v1) ?v2) f1) (= (f10 ?v_0 ?v2) f1))))))
(assert (forall ((?v0 S5) (?v1 S5)) (=> (= ?v0 ?v1) (= (f10 (f11 f13 ?v0) ?v1) f1))))
(assert (forall ((?v0 S5) (?v1 S5)) (or (= (f10 (f11 f13 ?v0) ?v1) f1) (= (f10 (f11 f13 ?v1) ?v0) f1))))
(assert (forall ((?v0 S5)) (= (f10 (f11 f13 ?v0) ?v0) f1)))
(assert (forall ((?v0 S5) (?v1 S5)) (=> (= (f10 (f11 f12 ?v0) ?v1) f1) (= (f10 (f11 f13 ?v0) ?v1) f1))))
(assert (= (f3 (f4 f8 f32) f33) f1))
(assert (= (f3 (f4 f6 f7) f32) f1))
(assert (= (f10 (f11 f13 f26) f34) f1))
(assert (not (= (f3 (f4 f6 f32) f7) f1)))
(assert (not (= (f10 (f11 f13 f34) f26) f1)))
(assert (= (f3 (f4 f8 f7) f32) f1))
(assert (= (f10 (f11 f12 f26) f34) f1))
(assert (not (= (f3 (f4 f8 f32) f7) f1)))
(assert (not (= (f10 (f11 f12 f34) f26) f1)))
(assert (= (f3 (f4 f8 f7) f32) f1))
(assert (= (f3 (f4 f6 f7) f32) f1))
(assert (not (= f7 f32)))
(assert (not (= f26 f34)))
(assert (not (= f32 f7)))
(assert (not (= f34 f26)))
(assert (not (= f7 f32)))
(assert (= (f20 f25 f32) f32))
(assert (forall ((?v0 S2)) (= (= f32 ?v0) (= ?v0 f32))))
(assert (forall ((?v0 S5)) (= (= f34 ?v0) (= ?v0 f34))))
(assert (forall ((?v0 S2)) (= (= (f3 (f4 f6 f32) ?v0) f1) (= (f3 (f4 f8 f7) ?v0) f1))))
(assert (forall ((?v0 S2) (?v1 S2)) (let ((?v_0 (f4 f8 ?v0)) (?v_1 (f20 (f21 f28 ?v1) f32))) (=> (= (f3 (f4 f8 f7) ?v0) f1) (=> (= (f3 ?v_0 ?v1) f1) (=> (not (= ?v0 ?v_1)) (= (f3 ?v_0 ?v_1) f1)))))))
(assert (forall ((?v0 S2) (?v1 S2)) (= (= (f3 (f4 f6 ?v0) (f20 (f21 f28 ?v1) f32)) f1) (= (f3 (f4 f8 ?v0) ?v1) f1))))
(assert (forall ((?v0 S2) (?v1 S2)) (=> (= (f3 (f4 f6 ?v0) (f20 (f21 f28 ?v1) f32)) f1) (= (f3 (f4 f8 ?v0) ?v1) f1))))
(assert (forall ((?v0 S2) (?v1 S2) (?v2 S3)) (=> (= (f3 (f4 f6 ?v0) ?v1) f1) (=> (= (f3 ?v2 ?v1) f1) (=> (forall ((?v3 S2)) (=> (= (f3 (f4 f6 ?v3) ?v1) f1) (=> (= (f3 ?v2 ?v3) f1) (= (f3 ?v2 (f20 (f21 f28 ?v3) f32)) f1)))) (= (f3 ?v2 ?v0) f1))))))
(assert (= (f3 (f4 f6 f32) f33) f1))
(assert (= f29 (f23 (f30 f31 (f35 f36 f33)) f34)))
(assert (forall ((?v0 S2) (?v1 S2) (?v2 S3)) (=> (= (f3 (f4 f8 ?v0) ?v1) f1) (=> (= (f3 ?v2 (f20 (f21 f28 ?v1) f32)) f1) (=> (forall ((?v3 S2)) (=> (= (f3 (f4 f8 ?v3) ?v1) f1) (=> (= (f3 ?v2 ?v3) f1) (= (f3 ?v2 (f20 (f21 f28 ?v3) f32)) f1)))) (= (f3 ?v2 ?v0) f1))))))
(assert (forall ((?v0 S3) (?v1 S2)) (=> (forall ((?v2 S2)) (=> (=> (= (f3 (f4 f8 f32) ?v2) f1) (= (f3 ?v0 (f20 (f21 f28 ?v2) f32)) f1)) (= (f3 ?v0 ?v2) f1))) (= (f3 ?v0 ?v1) f1))))
(assert (=> (forall ((?v0 S5)) (=> (= ?v0 (f23 (f30 f31 (f35 f36 f33)) f34)) (=> (= (f10 (f11 f12 f26) ?v0) f1) false))) false))
(check-sat)
(exit)
